AME : levi30_1
COMMENT : 30: 30x24 -city problem (levikoppenhol)
TYPE : TSP
DIMENSION : 30
EDGE_WEIGHT_TYPE : EUC_2D
NODE_COORD_SECTION
1 14 0
2 0 15
3 19 13
4 14 30
5 6 24
6 2 10
7 3 30
8 2 25
9 16 11
10 13 21
11 10 29
12 11 29
13 0 30
14 18 0
15 2 10
16 16 21
17 3 2
18 23 28
19 2 16
20 4 22
21 20 14
22 22 15
23 15 21
24 19 21
25 13 15
26 13 8
27 21 4
28 19 30
29 10 0
30 1 28
EOF